120
150
53
51
52
50
48
58
46
60
49
46
51
55
58
45
47
54
55
46
60
43
59
50
52
50
48
47
59
51
55
46
49
50
42
58
44
41
51
52
53
54
47
54
46
51
48
52
51
51
50
47
43
51
41
58
60
48
47
41
40
42
60
48
42
53
55
42
48
51
51
53
41
56
58
51
41
41
46
46
59
49
58
42
48
50
52
41
48
50
52
40
52
53
48
50
52
60
43
56
52
52
54
47
47
60
45
55
48
47
44
43
44
53
53
42
48
60
59
45
46
42
